examples/dis/graph-20-42.param
$ generated by rg.pl with seed 42
letting n be 20
$ 33 edges
letting E be {{5,11},{10,14},{10,17},{17,20},{2,11},{14,19},{2,9},{10,18},{2,12},{5,6},{3,19},{3,13},{12,18},{10,11},{2,7},{1,13},{2,15},{4,10},{11,18},{5,17},{6,7},{4,12},{7,17},{2,18},{3,6},{1,16},{11,17},{7,19},{3,7},{9,10},{13,19},{11,12},{5,19}}
